============================[ Problem Statistics ]=============================|                                                                             ||  Number of variables:          4242                                         ||  Number of clauses:            9835                                         ||  Parse time:                   0.23 s                                       ||                                                                             |============================[ Search Statistics ]==============================| Conflicts |          ORIGINAL         |          LEARNT          | Progress ||           |    Vars  Clauses Literals |    Limit  Clauses Lit/Cl |          |===============================================================================|       100 |    1591     6040   357041 |     2214      100     53 | 62.501 % |===============================================================================restarts              : 2conflicts             : 139            (361 /sec)decisions             : 307            (0.00 % random) (797 /sec)propagations          : 9931           (25795 /sec)conflict literals     : 8719           (95.50 % deleted)CPU time              : 0.385 sSATISFIABLE